RT is False
Default write of storage_offers_DA.csv just to have a file (but constraint should be inactive)
Reading model...
...model read.
creating competitive generators file...
...competitive generators recorded.
Loading data...
.. day-ahead data with real-time VRE data read.
Compiling instance...
...instance created.
Creating Offer Mitigation (model will solve as dispatch if TRUE)...
NOTE: storage offers will not be mitigated
...storage offer mitigation file created
Converting model to MPEC...
...converted
NOTE: initial MIP solve with only storage competitive to get feasible solution
Solving...

Welcome to IBM(R) ILOG(R) CPLEX(R) Interactive Optimizer 12.8.0.0
  with Simplex, Mixed Integer & Barrier Optimizers
5725-A06 5725-A29 5724-Y48 5724-Y49 5724-Y54 5724-Y55 5655-Y21
Copyright IBM Corp. 1988, 2017.  All Rights Reserved.

Type 'help' for a list of available commands.
Type 'help' followed by a command name for more
information on commands.

CPLEX> Logfile 'cplex.log' closed.
Logfile 'C:\Users\llavi\Desktop\test919\logs\tmpjjodmn14.cplex.log' open.
CPLEX> New value for parallel optimization mode: -1
CPLEX> New value for mixed integer optimality gap tolerance: 0.01
CPLEX> New value for integrality tolerance: 1e-09
CPLEX> New value for feasibility tolerance: 0.01
CPLEX> New value for deterministic time limit in ticks: 75000
CPLEX> Problem 'C:\Users\llavi\Desktop\test919\logs\tmp0lo1ld_n.pyomo.lp' read.
Read time = 0.31 sec. (13.50 ticks)
CPLEX> Problem name         : C:\Users\llavi\Desktop\test919\logs\tmp0lo1ld_n.pyomo.lp
Objective sense      : Maximize
Variables            :   54021  [Nneg: 1,  Box: 22008,  Free: 4464,
                                 Binary: 27548]
Objective nonzeros   :    8991
Linear constraints   :  123829  [Less: 41554,  Greater: 59512,  Equal: 22763]
  Nonzeros           :  300604
  RHS nonzeros       :   67912

Variables            : Min LB: -5000.000        Max UB: 1000000.       
Objective nonzeros   : Min   : 0.008333333      Max   : 825.7583       
Linear constraints   :
  Nonzeros           : Min   : 0.001000000      Max   : 1000000.       
  RHS nonzeros       : Min   : 0.008333333      Max   : 1000000.       
CPLEX> CPXPARAM_Simplex_Tolerances_Feasibility          0.01
CPXPARAM_Parallel                                -1
CPXPARAM_DetTimeLimit                            75000
CPXPARAM_MIP_Tolerances_MIPGap                   0.01
CPXPARAM_MIP_Tolerances_Integrality              1.0000000000000001e-09
Tried aggregator 3 times.
MIP Presolve eliminated 89176 rows and 19076 columns.
MIP Presolve added 3413 rows and 0 columns.
MIP Presolve modified 23929 coefficients.
Aggregator did 13063 substitutions.
Reduced MIP has 25003 rows, 21334 columns, and 71348 nonzeros.
Reduced MIP has 8445 binaries, 0 generals, 0 SOSs, and 0 indicators.
Presolve time = 0.30 sec. (167.20 ticks)
Probing fixed 401 vars, tightened 2854 bounds.
Probing time = 3.09 sec. (888.00 ticks)
Tried aggregator 2 times.
MIP Presolve eliminated 905 rows and 804 columns.
MIP Presolve modified 2201 coefficients.
Aggregator did 41 substitutions.
Reduced MIP has 24057 rows, 20489 columns, and 68603 nonzeros.
Reduced MIP has 8044 binaries, 0 generals, 0 SOSs, and 0 indicators.
Presolve time = 0.11 sec. (55.98 ticks)
Probing time = 0.06 sec. (15.28 ticks)
Clique table members: 6377.
MIP emphasis: balance optimality and feasibility.
MIP search method: dynamic search.
Parallel mode: opportunistic, using up to 4 threads.
Root relaxation solution time = 0.53 sec. (463.45 ticks)

        Nodes                                         Cuts/
   Node  Left     Objective  IInf  Best Integer    Best Bound    ItCnt     Gap

      0     0     6077.8813   678                   6077.8813     3568         
      0     0     6077.8813     5                    Cuts: 14     3570         
      0     0     6077.8813     5                     Cuts: 2     3571         
      0     0     6077.8813     5                 Impl Bds: 1     3571         
      0     2     6077.8813     5                   6077.8813     3571         
Elapsed time = 13.06 sec. (4746.91 ticks, tree = 0.02 MB, solutions = 0)
*    27    22      integral     0     5895.2554     6023.9522     3832    2.18%

Clique cuts applied:  1
Implied bound cuts applied:  1
Flow cuts applied:  5
Gomory fractional cuts applied:  1

Root node processing (before b&c):
  Real time             =   12.73 sec. (4708.60 ticks)
Parallel b&c, 4 threads:
  Real time             =    0.70 sec. (337.64 ticks)
  Sync time (average)   =    0.16 sec.
  Wait time (average)   =    0.02 sec.
                          ------------
Total (root+branch&cut) =   13.44 sec. (5046.25 ticks)

Solution pool: 1 solution saved.

MIP - Integer optimal solution:  Objective =  5.8952553891e+03
Solution time =   13.45 sec.  Iterations = 4055  Nodes = 52
Deterministic time = 5046.40 ticks  (375.11 ticks/sec)

CPLEX> Incumbent solution written to file 'C:\Users\llavi\Desktop\test919\logs\tmpqrxhzvfg.cplex.sol'.
CPLEX> NOTE: no warmstart specified for MIP iteration, default behavior is true
NOTE: resolving with all competitive generators using storage-only solution to warmstart
Solving...

Welcome to IBM(R) ILOG(R) CPLEX(R) Interactive Optimizer 12.8.0.0
  with Simplex, Mixed Integer & Barrier Optimizers
5725-A06 5725-A29 5724-Y48 5724-Y49 5724-Y54 5724-Y55 5655-Y21
Copyright IBM Corp. 1988, 2017.  All Rights Reserved.

Type 'help' for a list of available commands.
Type 'help' followed by a command name for more
information on commands.

CPLEX> Logfile 'cplex.log' closed.
Logfile 'C:\Users\llavi\Desktop\test919\logs\tmpnqg0uwvc.cplex.log' open.
CPLEX> New value for parallel optimization mode: -1
CPLEX> New value for mixed integer optimality gap tolerance: 0.01
CPLEX> New value for integrality tolerance: 1e-09
CPLEX> New value for feasibility tolerance: 0.01
CPLEX> New value for deterministic time limit in ticks: 75000
CPLEX> Problem 'C:\Users\llavi\Desktop\test919\logs\tmpvkr70lie.pyomo.lp' read.
Read time = 0.25 sec. (13.52 ticks)
CPLEX> MIP start file 'C:\Users\llavi\Desktop\test919\logs\tmp2osg0k7s.cplex.mst' read.
CPLEX> Problem name         : C:\Users\llavi\Desktop\test919\logs\tmpvkr70lie.pyomo.lp
Objective sense      : Maximize
Variables            :   54741  [Nneg: 1,  Box: 22728,  Free: 4464,
                                 Binary: 27548]
Objective nonzeros   :    9711
Linear constraints   :  123829  [Less: 41554,  Greater: 59512,  Equal: 22763]
  Nonzeros           :  300604
  RHS nonzeros       :   67912

Variables            : Min LB: -5000.000        Max UB: 1000000.       
Objective nonzeros   : Min   : 0.008333333      Max   : 825.7583       
Linear constraints   :
  Nonzeros           : Min   : 0.001000000      Max   : 1000000.       
  RHS nonzeros       : Min   : 0.008333333      Max   : 1000000.       
CPLEX> CPXPARAM_Simplex_Tolerances_Feasibility          0.01
CPXPARAM_Parallel                                -1
CPXPARAM_DetTimeLimit                            75000
CPXPARAM_MIP_Tolerances_MIPGap                   0.01
CPXPARAM_MIP_Tolerances_Integrality              1.0000000000000001e-09
Warning:  No solution found from 1 MIP starts.
Retaining values of one MIP start for possible repair.
Tried aggregator 3 times.
MIP Presolve eliminated 89176 rows and 19796 columns.
MIP Presolve added 3413 rows and 0 columns.
MIP Presolve modified 23929 coefficients.
Aggregator did 13063 substitutions.
Reduced MIP has 25003 rows, 21334 columns, and 71348 nonzeros.
Reduced MIP has 8445 binaries, 0 generals, 0 SOSs, and 0 indicators.
Presolve time = 0.34 sec. (167.56 ticks)
Probing fixed 401 vars, tightened 2854 bounds.
Probing time = 3.09 sec. (888.00 ticks)
Tried aggregator 2 times.
MIP Presolve eliminated 905 rows and 804 columns.
MIP Presolve modified 2201 coefficients.
Aggregator did 41 substitutions.
Reduced MIP has 24057 rows, 20489 columns, and 68603 nonzeros.
Reduced MIP has 8044 binaries, 0 generals, 0 SOSs, and 0 indicators.
Presolve time = 0.14 sec. (55.94 ticks)
Probing time = 0.05 sec. (15.28 ticks)
Clique table members: 6377.
MIP emphasis: balance optimality and feasibility.
MIP search method: dynamic search.
Parallel mode: opportunistic, using up to 4 threads.
Root relaxation solution time = 0.56 sec. (466.81 ticks)

        Nodes                                         Cuts/
   Node  Left     Objective  IInf  Best Integer    Best Bound    ItCnt     Gap

      0     0     6077.8813   694                   6077.8813     3501         
      0     0     6077.8813     6                     Cuts: 8     3505         
      0     0     6077.8813     6                     Cuts: 2     3506         
      0     0     6077.8813     6                 Impl Bds: 1     3506         
Repair heuristic found nothing.
      0     2     6077.8813     6                   6077.8813     3506         
Elapsed time = 23.08 sec. (9902.42 ticks, tree = 0.01 MB, solutions = 0)
*    29     7      integral     0     5895.2554     6023.9522     3869    2.18%
     50     5        cutoff           5895.2554     6023.9522     4116    2.18%

Clique cuts applied:  1
Implied bound cuts applied:  5
Flow cuts applied:  1
Gomory fractional cuts applied:  4

Root node processing (before b&c):
  Real time             =   22.77 sec. (9864.06 ticks)
Parallel b&c, 4 threads:
  Real time             =    0.83 sec. (322.90 ticks)
  Sync time (average)   =    0.22 sec.
  Wait time (average)   =    0.01 sec.
                          ------------
Total (root+branch&cut) =   23.59 sec. (10186.96 ticks)

Solution pool: 1 solution saved.

MIP - Integer optimal, tolerance (0.01/1e-06):  Objective =  5.8952553891e+03
Current MIP best bound =  5.9351793453e+03 (gap = 39.924, 0.68%)
Solution time =   23.59 sec.  Iterations = 4377  Nodes = 54 (1)
Deterministic time = 10187.12 ticks  (431.77 ticks/sec)

CPLEX> Incumbent solution written to file 'C:\Users\llavi\Desktop\test919\logs\tmpuzpf1dsw.cplex.sol'.
CPLEX> Exporting results... 
